310472.0
2998
1 2 4 5 7 9 10 14 18 20 21 23 25 27 28 29 30 34 35 36 38 39 41 43 44 45 47 49 52 55 58 60 61 62 63 64 66 67 69 70 72 73 75 76 78 79 81 83 84 85 86 87 89 91 92 93 95 98 99 100 102 103 104 105 106 108 109 111 112 113 114 115 116 117 118 121 122 124 127 130 131 132 134 135 136 137 138 140 141 142 144 148 149 150 153 155 157 159 160 161 162 165 168 171 174 175 177 179 181 182 183 188 189 190 195 198 199 